c File: instances/14_0.20_1.col
c
c Description: Random graph of size 14 vertices and P(0.2) of edges between any two vertices.
p col 14 91
e 2 13
e 2 14
e 3 12
e 3 13
e 4 6
e 4 10
e 5 6
e 5 7
e 5 8
e 6 9
e 6 10
e 6 13
e 6 14
e 7 8
e 7 11
e 7 13
e 8 12
e 9 10
e 9 12
e 10 12
e 10 14
e 11 13
e 12 14
e 13 14